p tw 40 84
0 1
0 39
2 3
2 16
2 19
2 35
3 26
3 29
3 9
3 10
3 20
4 5
4 15
4 33
4 35
4 31
4 16
5 23
5 21
5 8
5 35
6 7
6 18
6 25
6 21
7 10
7 15
7 16
7 24
7 11
7 21
8 9
8 14
8 19
8 30
9 27
9 28
9 20
9 21
9 19
9 36
10 25
11 12
11 19
11 25
12 34
12 37
12 33
12 15
13 14
13 17
13 20
13 38
13 24
14 22
15 17
15 32
15 22
17 20
18 19
18 36
18 38
18 24
18 29
19 22
19 27
19 23
21 22
21 32
21 26
21 24
22 36
23 31
25 35
26 29
27 37
29 30
29 34
30 37
31 38
31 35
32 34
35 36
35 39
